[VALIDATOR STDOUT]
Checking plan: /home/jfan5/Safety-gen/runs/benchmark/optic/delivery_20260205_114717/delivery/optic_results/delivery_size21_packages1_seed21001.plan
Plan executed successfully - checking goal
Plan valid
Final value: 127 

Successful plans:
Value: 127
 /home/jfan5/Safety-gen/runs/benchmark/optic/delivery_20260205_114717/delivery/optic_results/delivery_size21_packages1_seed21001.plan 127
